\ Model Cl_40_Ins_6.lp
\ LP format - for model browsing. Use MPS format to capture full model detail.
Maximize
 
Subject To
 obj1: y[0] = 0
 obj2: y[1] = 0
 obj1_Exp: - y[0] + 97 x[0] + 92 x[1] + 92 x[2] + 79 x[3] + 78 x[4]
   + 75 x[5] + 73 x[6] + 71 x[7] + 71 x[8] + 68 x[9] + 67 x[10] + 67 x[11]
   + 61 x[12] + 59 x[13] + 56 x[14] + 55 x[15] + 54 x[16] + 52 x[17]
   + 51 x[18] + 47 x[19] + 47 x[20] + 47 x[21] + 45 x[22] + 42 x[23]
   + 40 x[24] + 39 x[25] + 34 x[26] + 26 x[27] + 21 x[28] + 21 x[29]
   + 21 x[30] + 15 x[31] + 14 x[32] + 14 x[33] + 11 x[34] + 9 x[35]
   + 5 x[36] + 5 x[37] + 3 x[38] + x[39] = 0
 obj2_Exp: - y[1] + 89 x[0] + 91 x[1] + x[2] + 45 x[3] + 65 x[4] + 39 x[5]
   + 7 x[6] + 76 x[7] + 61 x[8] + 29 x[9] + 13 x[10] + 16 x[11] + 30 x[12]
   + 93 x[13] + 81 x[14] + 85 x[15] + 87 x[16] + 64 x[17] + 3 x[18]
   + 14 x[19] + 78 x[20] + 94 x[21] + 68 x[22] + 89 x[23] + 94 x[24]
   + 69 x[25] + 16 x[26] + 95 x[27] + 70 x[28] + 21 x[29] + 91 x[30]
   + 36 x[31] + 81 x[32] + 15 x[33] + 93 x[34] + 25 x[35] + 42 x[36]
   + 24 x[37] + 56 x[38] + 71 x[39] = 0
 Budget: 107 x[0] + 102 x[1] + 102 x[2] + 89 x[3] + 88 x[4] + 85 x[5]
   + 83 x[6] + 81 x[7] + 81 x[8] + 78 x[9] + 77 x[10] + 77 x[11] + 71 x[12]
   + 69 x[13] + 66 x[14] + 65 x[15] + 64 x[16] + 62 x[17] + 61 x[18]
   + 57 x[19] + 57 x[20] + 57 x[21] + 55 x[22] + 52 x[23] + 50 x[24]
   + 49 x[25] + 44 x[26] + 36 x[27] + 31 x[28] + 31 x[29] + 31 x[30]
   + 25 x[31] + 24 x[32] + 24 x[33] + 21 x[34] + 19 x[35] + 15 x[36]
   + 15 x[37] + 13 x[38] + 11 x[39] <= 579
Bounds
Binaries
 x[0] x[1] x[2] x[3] x[4] x[5] x[6] x[7] x[8] x[9] x[10] x[11] x[12] x[13]
 x[14] x[15] x[16] x[17] x[18] x[19] x[20] x[21] x[22] x[23] x[24] x[25]
 x[26] x[27] x[28] x[29] x[30] x[31] x[32] x[33] x[34] x[35] x[36] x[37]
 x[38] x[39]
Generals
 y[0] y[1]
End
